\ENCODING=ISO-8859-1
\Problem name: 

Minimize
 obj: delta
Subject To
 c1: - 0.949999988079071 f_0_0 - 0.525649964809418 f_0_1
     + 0.428990453481674 f_1_0 + 0.597490727901459 f_2_1  = -0.333333343267441
 c2: 0.375378757715225 f_0_0 - 0.428990393877029 f_1_0
     - 0.0908350124955177 f_1_1 + 0.465604722499847 f_2_0  = -0.333333343267441
 c3: 0.574621200561523 f_0_0 + 0.525649964809418 f_0_1
     + 0.0908349454402924 f_1_1 - 0.46560475230217 f_2_0
     - 0.597490727901459 f_2_1  = -0.333333343267441
End
